c "105878.clq"
p edge 142 552
e 1 5
e 1 6
e 1 7
e 1 9
e 1 13
e 1 14
e 1 15
e 1 16
e 1 21
e 1 51
e 1 56
e 1 65
e 1 86
e 1 91
e 2 5
e 2 6
e 2 8
e 2 9
e 2 11
e 2 18
e 2 20
e 2 23
e 2 25
e 2 30
e 2 40
e 2 59
e 2 70
e 2 98
e 2 127
e 2 139
e 3 5
e 3 6
e 3 7
e 3 8
e 3 9
e 3 22
e 3 34
e 3 39
e 3 44
e 3 58
e 3 72
e 3 82
e 3 107
e 3 109
e 3 140
e 4 5
e 5 6
e 5 7
e 5 8
e 5 10
e 5 11
e 5 13
e 5 15
e 5 23
e 5 25
e 5 26
e 5 31
e 5 33
e 5 39
e 5 40
e 5 47
e 5 57
e 5 68
e 5 69
e 5 71
e 5 73
e 5 75
e 5 80
e 5 84
e 5 85
e 5 88
e 5 93
e 5 94
e 5 95
e 5 105
e 5 108
e 5 117
e 5 137
e 5 138
e 5 140
e 6 7
e 6 9
e 6 10
e 6 11
e 6 12
e 6 14
e 6 15
e 6 16
e 6 19
e 6 20
e 6 22
e 6 25
e 6 26
e 6 27
e 6 31
e 6 33
e 6 35
e 6 44
e 6 45
e 6 48
e 6 50
e 6 53
e 6 55
e 6 59
e 6 61
e 6 63
e 6 64
e 6 69
e 6 70
e 6 76
e 6 78
e 6 80
e 6 85
e 6 89
e 6 94
e 6 95
e 6 97
e 6 98
e 6 109
e 6 113
e 6 122
e 6 124
e 6 126
e 6 128
e 6 130
e 6 136
e 6 139
e 7 8
e 7 10
e 7 11
e 7 12
e 7 13
e 7 16
e 7 17
e 7 18
e 7 19
e 7 20
e 7 21
e 7 23
e 7 24
e 7 29
e 7 38
e 7 42
e 7 47
e 7 48
e 7 49
e 7 59
e 7 65
e 7 66
e 7 84
e 7 91
e 7 98
e 7 104
e 7 108
e 7 115
e 7 116
e 7 119
e 7 122
e 7 123
e 7 132
e 7 137
e 7 141
e 7 142
e 8 14
e 8 18
e 8 27
e 8 28
e 8 29
e 8 32
e 8 38
e 8 46
e 8 50
e 8 59
e 8 67
e 8 74
e 8 86
e 8 97
e 8 103
e 8 117
e 9 10
e 9 12
e 9 13
e 9 19
e 9 21
e 9 24
e 9 31
e 9 33
e 9 35
e 9 39
e 9 40
e 9 42
e 9 75
e 9 103
e 9 114
e 9 125
e 9 128
e 9 134
e 10 12
e 10 16
e 10 28
e 10 32
e 10 37
e 10 38
e 10 46
e 10 48
e 10 49
e 10 62
e 10 64
e 10 69
e 10 73
e 10 80
e 10 85
e 10 88
e 10 100
e 10 102
e 10 123
e 11 14
e 11 17
e 11 26
e 11 51
e 11 61
e 11 126
e 11 139
e 12 20
e 12 29
e 12 36
e 12 50
e 12 54
e 12 60
e 12 64
e 12 83
e 12 101
e 12 104
e 12 113
e 12 126
e 13 17
e 13 25
e 13 27
e 13 28
e 13 38
e 13 44
e 13 77
e 13 101
e 13 102
e 13 116
e 13 125
e 13 129
e 13 142
e 14 15
e 14 17
e 14 36
e 14 44
e 14 46
e 14 49
e 14 58
e 14 81
e 14 86
e 14 90
e 14 110
e 14 116
e 14 133
e 15 18
e 15 19
e 15 23
e 15 29
e 15 30
e 15 36
e 15 51
e 15 52
e 15 56
e 15 64
e 15 66
e 15 71
e 15 74
e 15 76
e 15 82
e 15 106
e 15 110
e 15 131
e 16 22
e 16 34
e 16 40
e 16 42
e 16 43
e 16 91
e 16 92
e 16 102
e 16 111
e 16 119
e 17 53
e 18 22
e 18 27
e 18 30
e 18 31
e 18 34
e 18 56
e 18 65
e 18 125
e 18 130
e 18 133
e 19 21
e 19 30
e 19 41
e 19 43
e 19 47
e 19 55
e 19 68
e 19 87
e 19 108
e 19 130
e 19 140
e 20 32
e 20 35
e 20 41
e 20 52
e 20 70
e 20 103
e 20 106
e 20 107
e 20 111
e 20 114
e 20 135
e 21 24
e 21 43
e 21 61
e 21 78
e 21 80
e 21 81
e 21 90
e 21 97
e 21 114
e 21 115
e 22 24
e 22 33
e 22 37
e 22 39
e 22 49
e 22 66
e 22 68
e 22 73
e 22 79
e 22 85
e 22 105
e 22 118
e 23 68
e 24 26
e 24 67
e 24 71
e 24 75
e 24 77
e 24 81
e 24 82
e 24 87
e 24 88
e 24 100
e 24 105
e 25 37
e 25 41
e 25 43
e 25 46
e 25 47
e 25 52
e 25 73
e 25 81
e 25 89
e 25 94
e 25 103
e 25 104
e 25 116
e 25 129
e 26 28
e 26 34
e 26 37
e 26 52
e 26 58
e 26 142
e 27 36
e 27 53
e 27 77
e 27 129
e 28 118
e 29 32
e 29 45
e 29 54
e 29 55
e 29 114
e 30 35
e 30 60
e 30 123
e 32 48
e 32 76
e 32 117
e 33 41
e 33 78
e 33 108
e 34 51
e 34 84
e 34 90
e 34 99
e 34 134
e 35 53
e 35 100
e 36 45
e 36 57
e 36 61
e 36 82
e 36 83
e 36 101
e 36 140
e 37 42
e 37 66
e 38 63
e 38 83
e 38 118
e 38 134
e 39 69
e 39 71
e 39 120
e 39 123
e 39 131
e 40 57
e 40 77
e 40 112
e 41 45
e 41 112
e 41 120
e 44 100
e 44 127
e 45 55
e 45 79
e 45 96
e 46 60
e 47 58
e 47 87
e 48 62
e 48 70
e 49 50
e 49 54
e 49 56
e 49 57
e 49 62
e 49 87
e 49 105
e 49 109
e 49 120
e 50 60
e 50 106
e 50 135
e 50 141
e 50 142
e 51 54
e 51 63
e 52 141
e 53 67
e 53 72
e 53 88
e 53 99
e 53 120
e 53 132
e 54 72
e 54 83
e 54 93
e 54 122
e 55 65
e 55 74
e 55 75
e 55 86
e 55 94
e 55 134
e 56 63
e 56 99
e 56 121
e 57 62
e 57 79
e 57 92
e 57 121
e 58 79
e 58 96
e 58 136
e 59 89
e 59 106
e 60 89
e 60 119
e 61 67
e 61 72
e 61 74
e 61 91
e 61 95
e 61 115
e 61 119
e 61 121
e 61 138
e 62 135
e 65 78
e 65 92
e 65 93
e 65 95
e 65 101
e 65 107
e 65 131
e 66 96
e 67 132
e 68 76
e 70 112
e 73 136
e 74 139
e 75 99
e 76 84
e 76 121
e 77 93
e 78 124
e 79 98
e 79 132
e 80 107
e 80 109
e 81 92
e 81 113
e 81 127
e 82 90
e 85 96
e 85 110
e 85 111
e 85 113
e 86 97
e 86 127
e 86 131
e 88 102
e 89 126
e 90 125
e 91 128
e 92 133
e 94 110
e 99 104
e 99 136
e 101 135
e 102 112
e 102 138
e 102 141
e 104 138
e 105 111
e 105 118
e 105 133
e 105 137
e 107 124
e 108 115
e 108 117
e 108 129
e 109 124
e 120 122
e 121 128
e 126 130
e 134 137
